NAME : instances/clustered-mixed-tsp/instance-17.tsp
COMMENT : No Comment
TYPE : TSP
DIMENSION: 47
EDGE_WEIGHT_TYPE : EUC_2D
NODE_COORD_SECTION
1 232 546 
2 1974 248 
3 630 1563 
4 868 1330 
5 162 869 
6 654 1000 
7 1057 1941 
8 1147 1754 
9 694 1145 
10 1753 1533 
11 1510 488 
12 1423 1310 
13 988 1097 
14 271 128 
15 1139 1061 
16 845 967 
17 1285 1333 
18 665 1807 
19 107 559 
20 552 1797 
21 1215 864 
22 533 1562 
23 1983 1298 
24 1485 377 
25 415 1966 
26 32 664 
27 286 1736 
28 1121 691 
29 27 1470 
30 823 1313 
31 692 1445 
32 244 1106 
33 1953 1504 
34 1050 1991 
35 739 783 
36 594 1581 
37 226 828 
38 460 1088 
39 813 302 
40 836 1359 
41 1647 1245 
42 311 1952 
43 1922 428 
44 1538 281 
45 749 1950 
46 1143 1915 
47 551 1302 
EOF
